NAME : XML100_1116_01
COMMENT : Generated by Uchoa, Queiroga, and Vidal (2021)
TYPE : CVRP
DIMENSION : 101
EDGE_WEIGHT_TYPE : EUC_2D
CAPACITY : 38
NODE_COORD_SECTION
1    433  765 
2    943  493 
3    244  472 
4    548  68  
5    840  554 
6    732  910 
7    776  963 
8    132  403 
9    423  140 
10   542  23  
11   937  146 
12   148  9   
13   746  802 
14   358  745 
15   730  713 
16   556  997 
17   603  417 
18   9    382 
19   817  304 
20   57   907 
21   415  656 
22   466  905 
23   371  844 
24   203  582 
25   361  529 
26   571  55  
27   708  583 
28   18   972 
29   535  107 
30   74   403 
31   471  290 
32   680  468 
33   94   101 
34   195  957 
35   209  539 
36   261  639 
37   951  892 
38   204  794 
39   791  192 
40   856  482 
41   11   4   
42   656  362 
43   567  246 
44   182  709 
45   968  787 
46   996  705 
47   223  742 
48   157  925 
49   464  157 
50   78   493 
51   419  872 
52   882  915 
53   223  631 
54   246  956 
55   245  338 
56   89   119 
57   950  504 
58   278  933 
59   466  240 
60   537  462 
61   204  255 
62   31   790 
63   72   764 
64   87   966 
65   259  764 
66   620  406 
67   941  374 
68   477  199 
69   536  807 
70   638  46  
71   62   535 
72   818  781 
73   82   337 
74   82   710 
75   751  104 
76   489  953 
77   941  523 
78   798  808 
79   821  585 
80   357  315 
81   805  471 
82   890  942 
83   918  843 
84   920  885 
85   712  666 
86   49   581 
87   423  879 
88   40   829 
89   196  694 
90   179  887 
91   956  511 
92   124  100 
93   746  811 
94   76   334 
95   527  650 
96   265  517 
97   52   195 
98   875  668 
99   149  200 
100  229  827 
101  668  714 
DEMAND_SECTION
1    0   
2    1   
3    1   
4    1   
5    1   
6    1   
7    1   
8    1   
9    1   
10   1   
11   1   
12   1   
13   1   
14   1   
15   1   
16   1   
17   1   
18   1   
19   1   
20   1   
21   1   
22   1   
23   1   
24   1   
25   1   
26   1   
27   1   
28   1   
29   1   
30   1   
31   1   
32   1   
33   1   
34   1   
35   1   
36   1   
37   1   
38   1   
39   1   
40   1   
41   1   
42   1   
43   1   
44   1   
45   1   
46   1   
47   1   
48   1   
49   1   
50   1   
51   1   
52   1   
53   1   
54   1   
55   1   
56   1   
57   1   
58   1   
59   1   
60   1   
61   1   
62   1   
63   1   
64   1   
65   1   
66   1   
67   1   
68   1   
69   1   
70   1   
71   1   
72   1   
73   1   
74   1   
75   1   
76   1   
77   1   
78   1   
79   1   
80   1   
81   1   
82   1   
83   1   
84   1   
85   1   
86   1   
87   1   
88   1   
89   1   
90   1   
91   1   
92   1   
93   1   
94   1   
95   1   
96   1   
97   1   
98   1   
99   1   
100  1   
101  1   
DEPOT_SECTION
1
-1
EOF
